n_res = 4;
rc = [ 12, 15, 15, 16 ];
n_tasks = 30;
d = [ 5, 4, 7, 3, 10, 4, 2, 7, 7, 3, 2, 4, 2, 2, 7, 5, 3, 6, 4, 6, 5, 7, 3, 2, 6, 1, 4, 4, 9, 1 ];
rr = [| 5, 6, 8, 3, 5, 1, 5, 2, 1, 5, 2, 0, 3, 0, 3, 9, 6, 5, 5, 8, 1, 0, 5, 0, 4, 1, 0, 5, 0, 0
      | 0, 7, 0, 9, 3, 8, 5, 3, 0, 9, 10, 4, 8, 1, 9, 0, 10, 6, 3, 8, 4, 0, 8, 10, 9, 7, 4, 0, 6, 5
      | 8, 8, 4, 2, 6, 1, 0, 0, 0, 0, 4, 7, 2, 0, 5, 0, 9, 0, 9, 10, 0, 10, 0, 8, 10, 3, 6, 8, 4, 1
      | 3, 0, 5, 8, 9, 8, 3, 0, 8, 6, 0, 4, 0, 2, 6, 10, 0, 8, 0, 8, 2, 2, 6, 4, 2, 2, 5, 0, 3, 6 |];
suc = [ { 2 }, 
        { 3 }, 
        { 4 }, 
        { 5 }, 
        { 6 }, 
        { 7 }, 
        { 8 }, 
        { 9 }, 
        { 10 }, 
        { 11 }, 
        { 12 }, 
        { 13 }, 
        { 14 }, 
        { 15 }, 
        { 16 }, 
        { 17 }, 
        { 18 }, 
        { 19 }, 
        { 20 }, 
        { 21 }, 
        { 22 }, 
        { 23 }, 
        { 24 }, 
        { 25 }, 
        { 26 }, 
        { 27 }, 
        { 28 }, 
        { 29 }, 
        { 30 }, 
        {  }]; 
